LAMMPS (23 Jun 2022 - Update 1)
fix atomify all atomify
# Atomify commands start with #/

# Move camera to a nice position
#/camera position 7.0 8.0 24.0
#/camera target 7.0 8.0 24.0

# Set atom size and color
#/atom 1 calcium
#/atom 2 calcium
#/atom 3 chlorine
#/atom 4 hydrogen
#/atom 5 hydrogen
#/atom 6 sodium
#/atom 7 oxygen
#/atom 8 oxygen
#/atom 9 oxygen
#/atom 10 oxygen
#/atom 11 oxygen
#/atom 12 silicon
#/atom 13 silicon


# ---------- SETTINGS / SYSTEM ----------
units           real
atom_style      full
boundary        p p p

read_data       2.CSHmodel_final.data     # write the name of your data file
Reading data file ...
  orthogonal box = (-0.29192 -0.214121 -0.895644) to (13.17848 12.204921 47.091722)
  1 by 1 by 1 MPI processor grid
  reading atoms ...
  657 atoms
  scanning bonds ...
  3 = max bonds/atom
  scanning angles ...
  3 = max angles/atom
  reading bonds ...
  295 bonds
  reading angles ...
  140 angles
Finding 1-2 1-3 1-4 neighbors ...
  special bond factors lj:    0        0        0       
  special bond factors coul:  0        0        0       
     3 = max # of 1-2 neighbors
     3 = max # of 1-3 neighbors
     3 = max # of 1-4 neighbors
     5 = max # of special neighbors
  special bonds CPU = 0.001 seconds
  read_data CPU = 0.018 seconds

neighbor        2.0 bin
neigh_modify    delay 10 every 1

# ---- Non bonded interactions  ----
pair_style      lj/cut/coul/long 10.0 10.0     #lennard-jones and coulomb cut offs
kspace_style    pppm 1.0e-4                    # coulomb long range solver and accuracy

pair_coeff    1 1  0.0000050301 5.5666638636 # Ca1
pair_coeff    2 2  0.0000050219 5.5624343529 # Ca2
pair_coeff    3 3 0.1000998933 4.3999709805 # Cl
pair_coeff    4 4 0.0000000000 0.0000000000 # H
pair_coeff    5 5 0.0000000000 0.0000000000 # Hw
pair_coeff    6 6 0.1300999871 2.3500126639 # Na
pair_coeff    7 7 0.1554164124 3.1655200879 # O
pair_coeff    8 8 0.1554164124 3.1655200879 # Oca
pair_coeff    9 9 0.1554164124 3.1655200879 # Oh
pair_coeff    10 10 0.1554164124 3.1655200879 # Osi
pair_coeff    11 11 0.1554164124 3.1655200879 # Ow
pair_coeff    12 12 0.0000018402 3.3019566252 # si1
pair_coeff    13 13 0.0000018402 3.3019566252 # si2


# ------ Bonded interactions  -------
bond_style      harmonic
angle_style     harmonic

bond_coeff      1  450.0  1.0        # SPC model: Oh–H bond
bond_coeff      2  450.0  1.0        # SPC model: Ow–Hw bond
angle_coeff     1  55.0  109.47      # SPC model: Hw–Ow–Hw angle

# ---------- FAST EQUILIBRATION ----------
min_style       cg
minimize        1.0e-3 1.0e-4 500 1000
WARNING: Using 'neigh_modify every 1 delay 0 check yes' setting during minimization (src/min.cpp:187)
PPPM initialization ...
WARNING: System is not charge neutral, net charge = 3.7628 (src/kspace.cpp:327)
  using 12-bit tables for long-range coulomb (src/kspace.cpp:342)
  G vector (1/distance) = 0.28061712
  grid = 10 9 24
  stencil order = 5
  estimated absolute RMS force accuracy = 0.027008575
  estimated relative force accuracy = 8.1335522e-05
  using double precision KISS FFT
  3d grid and FFT values/proc = 8432 2160
Generated 78 of 78 mixed pair_coeff terms from geometric mixing rule
Neighbor list info ...
  update every 1 steps, delay 0 steps, check yes
  max neighbors/atom: 2000, page size: 100000
  master list distance cutoff = 12
  ghost atom cutoff = 12
  binsize = 6, bins = 3 3 8
  2 neighbor lists, perpetual/occasional/extra = 1 1 0
  (1) pair lj/cut/coul/long, perpetual
      attributes: half, newton on
      pair build: half/bin/newton
      stencil: half/bin/3d
      bin: standard
  (2) fix atomify, occasional, copy from (1)
      attributes: half, newton on
      pair build: copy
      stencil: none
      bin: none
Per MPI rank memory allocation (min/avg/max) = 9.138 | 9.138 | 9.138 Mbytes
   Step          Temp          E_pair         E_mol          TotEng         Press     
         0   0              277673.81      335.37204      278009.18      11204198     
        31   0             -53189.653      175.6316      -53014.021      13347.323    
Loop time of 1.2153 on 1 procs for 31 steps with 657 atoms

0.0% CPU use with 1 MPI tasks x no OpenMP threads

Minimization stats:
  Stopping criterion = energy tolerance
  Energy initial, next-to-last, final = 
      278009.180248948   -52963.715760107  -53014.0210079205
  Force two-norm initial, final = 2444961.3 305.22911
  Force max component initial, final = 627848.89 87.282222
  Final line search alpha, max atom move = 0.00098246456 0.08575169
  Iterations, force evaluations = 31 40

MPI task timing breakdown:
Section |  min time  |  avg time  |  max time  |%varavg| %total
---------------------------------------------------------------
Pair    | 0.1735     | 0.1735     | 0.1735     |   0.0 | 14.28
Bond    | 0.0008     | 0.0008     | 0.0008     |   0.0 |  0.07
Kspace  | 0.0277     | 0.0277     | 0.0277     |   0.0 |  2.28
Neigh   | 0.0059     | 0.0059     | 0.0059     |   0.0 |  0.49
Comm    | 0.0019     | 0.0019     | 0.0019     |   0.0 |  0.16
Output  | 0          | 0          | 0          |   0.0 |  0.00
Modify  | 0.9989     | 0.9989     | 0.9989     |   0.0 | 82.19
Other   |            | 0.0066     |            |       |  0.54

Nlocal:            657 ave         657 max         657 min
Histogram: 1 0 0 0 0 0 0 0 0 0
Nghost:           6793 ave        6793 max        6793 min
Histogram: 1 0 0 0 0 0 0 0 0 0
Neighs:         208109 ave      208109 max      208109 min
Histogram: 1 0 0 0 0 0 0 0 0 0

Total # of neighbors = 208109
Ave neighs/atom = 316.75647
Ave special neighs/atom = 1.3363775
Neighbor list builds = 1
Dangerous builds = 0

velocity        all create 298.0 4928459 rot yes mom yes
fix             npt all npt temp 298.0 298.0 100.0 aniso 1 1 1000
thermo          1000
thermo_style    custom step time temp pe ke etotal press density lx ly lz vol

timestep        1
run             100000
PPPM initialization ...
  using 12-bit tables for long-range coulomb (src/kspace.cpp:342)
  G vector (1/distance) = 0.28061712
  grid = 10 9 24
  stencil order = 5
  estimated absolute RMS force accuracy = 0.027008575
  estimated relative force accuracy = 8.1335522e-05
  using double precision KISS FFT
  3d grid and FFT values/proc = 8432 2160
Generated 78 of 78 mixed pair_coeff terms from geometric mixing rule
Per MPI rank memory allocation (min/avg/max) = 8.013 | 8.013 | 8.013 Mbytes
   Step          Time           Temp          PotEng         KinEng         TotEng         Press         Density           Lx             Ly             Lz           Volume    
        31   31             298           -53014.021      582.7126      -52431.308      16665.44       1.6187333      13.4704        12.419042      47.987366      8027.7807    
      1000   1000           313.57441     -54030.976      613.16697     -53417.809      1169.9417      1.6952847      12.845234      12.93291       46.141307      7665.2823    
      2000   2000           296.82874     -54180.232      580.4223      -53599.81      -961.23357      1.7495498      12.930773      12.88394       44.583207      7427.5312    
      3000   3000           311.59421     -54214.938      609.29487     -53605.643     -970.17038      1.811392       13.100936      12.731771      43.009778      7173.95      
      4000   4000           285.47586     -54286.053      558.22275     -53727.83      -2010.5041      1.8381697      13.291293      12.515221      42.499069      7069.4428    
      5000   5000           305.39559     -54275.837      597.17402     -53678.663      2760.1845      1.8258588      13.326918      12.381899      43.130711      7117.1087    
      6000   6000           302.15001     -54349.218      590.82758     -53758.39       2306.9739      1.8818862      13.341637      12.333311      41.965138      6905.2187    
      7000   7000           292.41192     -54332.827      571.78561     -53761.041     -2536.9564      1.8639432      13.39964       12.353151      42.117953      6971.6909    
      8000   8000           305.64777     -54352.724      597.66714     -53755.057      1173.3746      1.8979414      13.48698       12.240617      41.47343       6846.8056    
      9000   9000           291.99055     -54406.767      570.96166     -53835.805      5200.3358      1.9166984      13.403105      12.306262      41.104131      6779.8022    
     10000   10000          286.71472     -54362.303      560.64523     -53801.658     -1890.6049      1.892189       13.442122      12.31039       41.501773      6867.6202    
     11000   11000          301.54331     -54383.014      589.64122     -53793.373      44.502295      1.8761802      13.497668      12.244073      41.909413      6926.2193    
     12000   12000          287.91441     -54382.339      562.99113     -53819.348     -365.65359      1.9084664      13.418665      12.188742      41.631116      6809.046     
     13000   13000          297.34313     -54392.493      581.42815     -53811.065     -2538.8387      1.8943325      13.614004      12.210255      41.267101      6859.8494    
     14000   14000          290.01286     -54400.562      567.09444     -53833.467     -2298.7121      1.8994062      13.495534      12.250882      41.380478      6841.5253    
     15000   15000          301.28568     -54381.066      589.13746     -53791.929      3.265033       1.9168009      13.5376        12.199745      41.048884      6779.4395    
     16000   16000          282.04476     -54430.178      551.51353     -53878.665     -3152.3011      1.8845316      13.563101      12.103759      42.003754      6895.5254    
     17000   17000          293.80685     -54406.628      574.51326     -53832.114      1139.4102      1.9094784      13.562282      12.199998      41.130455      6805.4373    
     18000   18000          303.63691     -54436.448      593.73508     -53842.713     -1004.3571      1.8924214      13.564013      12.223326      41.416688      6866.7772    
     19000   19000          296.20466     -54372.001      579.20197     -53792.799     -3031.0074      1.8993502      13.598747      12.160321      41.373458      6841.7271    
     20000   20000          307.80054     -54402.474      601.87668     -53800.597      94.94682       1.898106       13.485155      12.282598      41.333687      6846.2118    
     21000   21000          295.26631     -54438.963      577.36711     -53861.596      1914.0602      1.9127157      13.663346      12.156408      40.903271      6793.9193    
     22000   22000          297.02348     -54407.366      580.80311     -53826.563     -1297.1413      1.9076007      13.593111      12.228443      40.982014      6812.1361    
     23000   23000          291.07181     -54455.458      569.16513     -53886.293     -2911.3196      1.9232857      13.526383      12.187121      40.986819      6756.5812    
     24000   24000          299.47924     -54411.609      585.60513     -53826.004      307.14433      1.9269446      13.58152       12.155559      40.848703      6743.7517    
     25000   25000          292.88832     -54396.22       572.71715     -53823.503      2014.1445      1.912064       13.533611      12.205061      41.144778      6796.2347    
     26000   26000          297.09493     -54422.924      580.94281     -53841.982     -2772.7899      1.9069315      13.51576       12.215796      41.273705      6814.5266    
     27000   27000          302.95819     -54416.058      592.40789     -53823.651      1394.2001      1.9052596      13.541711      12.241273      41.144946      6820.5065    
     28000   28000          291.37026     -54475.864      569.74872     -53906.116      2992.0108      1.9153679      13.52987       12.214778      41.05248       6784.5117    
     29000   29000          307.89364     -54416.726      602.05873     -53814.667      2029.6503      1.9001895      13.549081      12.253815      41.190091      6838.7052    
     30000   30000          306.48142     -54442.334      599.29726     -53843.037      1713.9055      1.9234376      13.541916      12.326872      40.472467      6756.0474    
     31000   31000          297.81713     -54414.929      582.35501     -53832.574     -1404.8769      1.9076524      13.552736      12.34073       40.728999      6811.9517    
     32000   32000          296.10009     -54410.63       578.99749     -53831.633     -2086.4501      1.9081753      13.44572       12.184651      41.567639      6810.085     
     33000   33000          297.43889     -54407.827      581.6154      -53826.212      607.58342      1.9175006      13.534525      12.232787      40.932367      6776.9656    
     34000   34000          305.82142     -54448.565      598.00669     -53850.559     -563.82643      1.9178794      13.564798      12.214455      40.894234      6775.6272    
     35000   35000          300.2248      -54432.871      587.063       -53845.808      3229.6801      1.8960519      13.440041      12.280708      41.523752      6853.6286    
     36000   36000          293.39274     -54443.583      573.70352     -53869.879      2669.6371      1.9172085      13.557898      12.306421      40.623496      6777.9981    
     37000   37000          291.44845     -54435.694      569.90161     -53865.793     -1006.8714      1.9212417      13.497314      12.29928       40.743819      6763.7694    
     38000   38000          292.83967     -54408.893      572.62202     -53836.271     -1815.1977      1.898261       13.582562      12.252922      41.133296      6845.6529    
     39000   39000          294.48242     -54445.865      575.83429     -53870.03      -8063.9448      1.8698855      13.486255      12.427642      41.464427      6949.5354    
     40000   40000          298.89118     -54408.698      584.45522     -53824.242      4649.3229      1.9101384      13.45038       12.318687      41.058868      6803.086     
     41000   41000          306.42679     -54416.448      599.19044     -53817.257      6079.2462      1.9056567      13.474629      12.363194      40.933478      6819.0855    
     42000   42000          306.14231     -54428.402      598.63415     -53829.768      4026.8315      1.8905114      13.55688       12.279195      41.291614      6873.7147    
     43000   43000          298.02026     -54467.715      582.75222     -53884.963     -2006.805       1.8870001      13.501518      12.401383      41.128813      6886.5053    
     44000   44000          297.84115     -54401.941      582.40198     -53819.539      130.61208      1.8802573      13.544247      12.360968      41.280616      6911.2009    
     45000   45000          300.88558     -54443.906      588.3551      -53855.551     -3463.514       1.908472       13.526008      12.235191      41.14382       6809.026     
     46000   46000          309.06482     -54459.229      604.34888     -53854.88      -3544.7764      1.896969       13.591394      12.295008      40.993759      6850.3152    
     47000   47000          295.27451     -54466.024      577.38315     -53888.641     -1208.202       1.9044432      13.47556       12.3163        41.112669      6823.4303    
     48000   48000          297.59072     -54436.941      581.91228     -53855.029      70.827189      1.908401       13.513615      12.350269      40.799345      6809.2793    
     49000   49000          293.41566     -54376.066      573.74833     -53802.318      610.29683      1.8929409      13.715159      12.253196      40.849196      6864.8924    
     50000   50000          292.57609     -54435.27       572.10663     -53863.164     -6734.3126      1.8936333      13.522663      12.357747      41.065148      6862.3824    
     51000   51000          310.91192     -54387.308      607.96071     -53779.347     -2541.2151      1.8898909      13.671015      12.308733      40.862032      6875.9715    
     52000   52000          300.33901     -54436.784      587.28632     -53849.498     -1556.1212      1.9237073      13.531532      12.305123      40.569426      6755.1004    
     53000   53000          298.04106     -54413.802      582.79289     -53831.009      1079.6674      1.8934515      13.603349      12.29465       41.035016      6863.0412    
     54000   54000          297.27134     -54422.539      581.28777     -53841.251      296.15561      1.8828938      13.534062      12.304649      41.442654      6901.5234    
     55000   55000          299.03705     -54410.386      584.74046     -53825.645      340.57539      1.9146373      13.543101      12.223302      40.999413      6787.1005    
     56000   56000          293.97136     -54454.154      574.83495     -53879.319     -4495.0595      1.9186359      13.567558      12.290059      40.618377      6772.9556    
     57000   57000          292.41792     -54445.426      571.79734     -53873.629      851.47457      1.9457636      13.536786      12.258691      40.245848      6678.5275    
     58000   58000          290.95874     -54429.087      568.94403     -53860.143      3207.897       1.9439898      13.569503      12.286519      40.094427      6684.6215    
     59000   59000          289.58073     -54428.434      566.24947     -53862.184     -2214.5039      1.9224863      13.492467      12.313951      40.683542      6759.3907    
     60000   60000          311.30824     -54417.661      608.73567     -53808.925     -2616.1731      1.9049292      13.623141      12.309576      40.679127      6821.6895    
     61000   61000          303.72103     -54459.553      593.89957     -53865.654     -1239.0408      1.9301709      13.531739      12.350207      40.285354      6732.4795    
     62000   62000          287.63378     -54459.135      562.44237     -53896.693     -3487.9214      1.9411435      13.587439      12.29331       40.078061      6694.423     
     63000   63000          303.23743     -54446.298      592.95393     -53853.345      344.46122      1.9268351      13.558301      12.312898      40.39808       6744.135     
     64000   64000          300.49024     -54429.758      587.58205     -53842.176     -3779.7096      1.9326153      13.516635      12.311216      40.40693       6723.9642    
     65000   65000          317.00483     -54439.853      619.87486     -53819.978      3566.8104      1.9542092      13.515413      12.286579      40.044184      6649.6645    
     66000   66000          300.0244      -54454.097      586.67114     -53867.426     -420.687        1.9260958      13.540588      12.311119      40.472295      6746.7233    
     67000   67000          311.87916     -54441.178      609.85207     -53831.326     -234.74566      1.9421966      13.639885      12.260202      40.010066      6690.7932    
     68000   68000          314.31148     -54441.832      614.60826     -53827.224      2925.9299      1.9267841      13.505896      12.373771      40.356387      6744.3135    
     69000   69000          290.92816     -54411.08       568.88424     -53842.195     -508.79622      1.9252788      13.467648      12.367608      40.522825      6749.5866    
     70000   70000          298.44897     -54441.821      583.59051     -53858.23       241.4026       1.9445965      13.402226      12.37534       40.290922      6682.5357    
     71000   71000          293.99437     -54431.145      574.87994     -53856.265      1890.6888      1.9144836      13.540646      12.322775      40.679091      6787.6453    
     72000   72000          305.3329      -54428.946      597.05144     -53831.894     -2120.7721      1.9329241      13.556518      12.300031      40.318246      6722.8898    
     73000   73000          292.63197     -54444.103      572.21589     -53871.888     -2930.5452      1.9099028      13.596897      12.281741      40.743634      6803.9251    
     74000   74000          290.02411     -54398.279      567.11645     -53831.162      659.828        1.918667       13.536163      12.239623      40.879687      6772.8457    
     75000   75000          282.17254     -54406.413      551.76341     -53854.65      -59.679516      1.9013245      13.482145      12.277596      41.289744      6834.6227    
     76000   76000          303.42788     -54434.831      593.32634     -53841.504      2381.9519      1.9083144      13.59095       12.23848       40.939598      6809.5887    
     77000   77000          301.65377     -54475.089      589.85722     -53885.232      1364.3905      1.9210003      13.506441      12.306358      40.697984      6764.6193    
     78000   78000          294.63317     -54445.101      576.12906     -53868.972     -4774.6006      1.9264715      13.590742      12.318357      40.291392      6745.4076    
     79000   79000          293.58338     -54468.806      574.07629     -53894.729     -2190.7064      1.8923131      13.525694      12.242664      41.470792      6867.17      
     80000   80000          320.21849     -54460.399      626.15888     -53834.241      60.053543      1.9070843      13.435716      12.224074      41.488155      6813.9807    
     81000   81000          288.32881     -54465.111      563.80144     -53901.309     -3910.8912      1.9208355      13.560145      12.28175       40.621508      6765.1998    
     82000   82000          304.97768     -54429.807      596.35684     -53833.45       1879.6103      1.8975952      13.518659      12.305015      41.16721       6848.0548    
     83000   83000          292.35327     -54423.385      571.67092     -53851.714      5755.4545      1.9105379      13.537932      12.295105      40.863033      6801.6636    
     84000   84000          291.40722     -54462.729      569.821       -53892.908     -1341.9093      1.9046728      13.587135      12.185803      41.206751      6822.6078    
     85000   85000          295.91479     -54412.232      578.63515     -53833.596      1470.0227      1.9019794      13.533693      12.287946      41.083685      6832.2696    
     86000   86000          305.29729     -54419.768      596.98181     -53822.786     -224.4597       1.9384168      13.572416      12.287555      40.197682      6703.84      
     87000   87000          307.60965     -54414.482      601.50341     -53812.978      930.48308      1.8977902      13.501166      12.297685      41.240885      6847.3512    
     88000   88000          313.70609     -54416.484      613.42446     -53803.059      297.08704      1.9154421      13.624428      12.372415      40.246582      6784.2488    
     89000   89000          287.81675     -54419.465      562.80015     -53856.665      25.309961      1.914198       13.529457      12.270762      40.891406      6788.6582    
     90000   90000          292.65201     -54420.555      572.25508     -53848.3       -3097.9452      1.9142638      13.536015      12.328624      40.678373      6788.4248    
     91000   91000          287.63556     -54411.015      562.44585     -53848.569     -6163.8588      1.8788808      13.597251      12.395874      41.033945      6916.264     
     92000   92000          283.81595     -54434.572      554.97695     -53879.595      441.60027      1.8898459      13.561637      12.326469      41.133301      6876.1349    
     93000   93000          292.98283     -54383.265      572.90196     -53810.363     -2116.1351      1.9013204      13.575518      12.28099       40.994511      6834.6376    
     94000   94000          292.20365     -54445.741      571.37834     -53874.363     -2438.0084      1.8988689      13.530033      12.357719      40.929708      6843.4613    
     95000   95000          292.3168      -54431.354      571.5996      -53859.755     -2565.3636      1.88116        13.681225      12.330461      40.948759      6907.8844    
     96000   96000          315.23579     -54410.875      616.41565     -53794.459     -1249.084       1.9025251      13.571031      12.272741      41.009643      6830.3097    
     97000   97000          310.70991     -54450.471      607.56571     -53842.905     -4273.9507      1.8770714      13.624328      12.306515      41.289523      6922.9311    
     98000   98000          289.6815      -54431.667      566.44651     -53865.221     -3221.4737      1.8959394      13.569772      12.308742      41.035538      6854.0355    
     99000   99000          292.67831     -54449.861      572.30651     -53877.554      4295.0096      1.9093017      13.506643      12.333176      40.857697      6806.0673    
    100000   100000         300.15826     -54462.553      586.93287     -53875.62      -2682.4841      1.9054191      13.599508      12.288323      40.809802      6819.9358    
    100031   100031         284.93496     -54422.869      557.16507     -53865.704     -236.11733      1.9038324      13.604583      12.297805      40.797093      6825.6196    
Loop time of 485.571 on 1 procs for 100000 steps with 657 atoms

Performance: 17.793 ns/day, 1.349 hours/ns, 205.943 timesteps/s
0.0% CPU use with 1 MPI tasks x no OpenMP threads

MPI task timing breakdown:
Section |  min time  |  avg time  |  max time  |%varavg| %total
---------------------------------------------------------------
Pair    | 303.91     | 303.91     | 303.91     |   0.0 | 62.59
Bond    | 1.0281     | 1.0281     | 1.0281     |   0.0 |  0.21
Kspace  | 59.791     | 59.791     | 59.791     |   0.0 | 12.31
Neigh   | 24.172     | 24.172     | 24.172     |   0.0 |  4.98
Comm    | 2.8468     | 2.8468     | 2.8468     |   0.0 |  0.59
Output  | 0.2253     | 0.2253     | 0.2253     |   0.0 |  0.05
Modify  | 86.509     | 86.509     | 86.509     |   0.0 | 17.82
Other   |            | 7.085      |            |       |  1.46

Nlocal:            657 ave         657 max         657 min
Histogram: 1 0 0 0 0 0 0 0 0 0
Nghost:           7702 ave        7702 max        7702 min
Histogram: 1 0 0 0 0 0 0 0 0 0
Neighs:         228687 ave      228687 max      228687 min
Histogram: 1 0 0 0 0 0 0 0 0 0

Total # of neighbors = 228687
Ave neighs/atom = 348.07763
Ave special neighs/atom = 1.3363775
Neighbor list builds = 3800
Dangerous builds = 0
unfix           npt


# --------- MSD & DIFFUSION COEFFICIENTS ----------
group           Cl_atoms type 3
5 atoms in group Cl_atoms
compute         msdCl Cl_atoms msd   # compute msd produce: [1]=MSDx, [2]=MSDy, [3]=MSDz, [4]=MSDtot  (en Å^2)


# --------- Density profile in z ----------
variable        dz_A    equal 0.5
compute         zbin Cl_atoms chunk/atom bin/1d z lower ${dz_A} units box    # Chunks in z direction (from the simulation box lower limit)
compute         zbin Cl_atoms chunk/atom bin/1d z lower 0.5 units box    
fix             profA Cl_atoms ave/chunk 200 20 4000 zbin density/number file density_z.dat ave running     # Density (particles/Å^3).



# ---------- PRODUCTION ----------
fix             nvt all nvt temp 298.0 298.0 100.0
dump            trj all custom 1000 traj.lammpstrj id element xu yu zu
dump_modify     trj element Ca Ca Cl H H Na O O O O O Si Si
thermo_style    custom step time temp etotal c_msdCl[1] c_msdCl[2] c_msdCl[3] c_msdCl[4]
thermo          1000
run             100000
PPPM initialization ...
  using 12-bit tables for long-range coulomb (src/kspace.cpp:342)
  G vector (1/distance) = 0.28600809
  grid = 10 9 24
  stencil order = 5
  estimated absolute RMS force accuracy = 0.02158042
  estimated relative force accuracy = 6.4988793e-05
  using double precision KISS FFT
  3d grid and FFT values/proc = 8432 2160
Generated 78 of 78 mixed pair_coeff terms from geometric mixing rule
Per MPI rank memory allocation (min/avg/max) = 8.657 | 8.657 | 8.657 Mbytes
   Step          Time           Temp          TotEng       c_msdCl[1]     c_msdCl[2]     c_msdCl[3]     c_msdCl[4]  
    100031   100031         284.93496     -53865.653      0              0              0              0            
    101000   101000         317.76726     -53841.368      0.076183142    0.16949345     0.04012486     0.28580145   
    102000   102000         308.69955     -53779.21       0.11771484     0.90826514     0.17563811     1.2016181    
    103000   103000         293.89744     -53857.97       0.18265092     0.32505942     0.14776849     0.65547882   
    104000   104000         287.64238     -53875.155      0.30554188     0.31786612     0.19677367     0.82018167   
    105000   105000         292.5786      -53841.896      0.22681887     0.91482025     0.052098116    1.1937372    
    106000   106000         288.38409     -53895.099      1.5094546      0.9133672      0.35186833     2.7746902    
    107000   107000         295.86923     -53866.593      0.58338211     1.2118835      0.19562602     1.9908916    
    108000   108000         285.57496     -53892.88       0.11420499     1.1623205      0.17974763     1.4562731    
    109000   109000         287.1655      -53840.416      0.88733827     1.2614146      0.22781661     2.3765695    
    110000   110000         315.42803     -53823.951      0.35066555     1.2084786      0.32866032     1.8878045    
    111000   111000         299.90281     -53825.379      0.37065854     1.1795449      0.36642986     1.9166333    
    112000   112000         290.16227     -53876.388      0.50399023     0.76404847     0.32068764     1.5887263    
    113000   113000         290.27474     -53908.604      0.52065801     1.8448454      0.45179554     2.817299     
    114000   114000         303.7473      -53872.316      0.8325034      1.0033734      0.28235083     2.1182276    
    115000   115000         299.09958     -53834.925      1.3485249      1.2424086      0.6461308      3.2370642    
    116000   116000         279.53928     -53896.957      1.5125177      1.1832038      0.77883483     3.4745563    
    117000   117000         300.12155     -53838.992      1.1630664      1.5627301      0.86799145     3.5937879    
    118000   118000         285.33993     -53893.158      1.02409        1.0604879      0.96542418     3.0500021    
    119000   119000         300.57985     -53844.1        0.71717924     0.84870878     0.85556348     2.4214515    
    120000   120000         303.39946     -53821.847      2.2822322      0.69564196     1.0979219      4.075796     
    121000   121000         305.91118     -53885.244      2.3419154      1.0605177      1.0342352      4.4366683    
    122000   122000         299.72253     -53800.487      2.4700018      1.4554288      1.3361544      5.261585     
    123000   123000         307.32952     -53859.439      3.3524634      2.2028842      2.0419201      7.5972678    
    124000   124000         278.24333     -53893.581      2.1646567      1.9419448      1.0229994      5.1296008    
    125000   125000         289.11663     -53868.503      1.5601176      0.95635724     1.4513061      3.9677809    
    126000   126000         284.50886     -53905.835      3.2686811      1.4286993      1.5349582      6.2323386    
    127000   127000         290.48296     -53860.535      2.8800802      0.74566152     2.2107224      5.8364641    
    128000   128000         279.99102     -53951.658      3.427513       0.77834147     2.7565211      6.9623756    
    129000   129000         309.82958     -53824.605      4.7986161      0.77289662     2.0123744      7.5838871    
    130000   130000         302.14468     -53874.418      5.2864666      1.0857923      1.7830668      8.1553257    
    131000   131000         299.34331     -53881.345      5.8782205      0.82964291     1.0767419      7.7846053    
    132000   132000         307.14336     -53862.956      5.4324565      1.2877554      2.1013865      8.8215984    
    133000   133000         300.53832     -53876.719      5.7377226      1.1544318      1.9302299      8.8223843    
    134000   134000         299.21898     -53884.985      4.331393       1.4833718      2.2229154      8.0376801    
    135000   135000         302.35719     -53876.393      4.5270815      1.7126923      1.9191121      8.1588859    
    136000   136000         308.82314     -53799.206      4.0951783      3.106115       2.3898194      9.5911127    
    137000   137000         282.10296     -53873.927      3.4690997      2.8520992      1.8672381      8.188437     
    138000   138000         300.62456     -53857.165      3.1187598      3.6011177      2.4725172      9.1923946    
    139000   139000         296.33007     -53871.333      3.6950349      3.2762309      1.9566301      8.9278959    
    140000   140000         293.67443     -53844.109      5.5570441      1.9172796      3.8249007      11.299224    
    141000   141000         283.68729     -53842.051      4.8479711      2.9597889      3.8125201      11.62028     
    142000   142000         280.59244     -53884.154      5.1067983      3.2751488      5.4179747      13.799922    
    143000   143000         270.07616     -53917.881      5.1891869      2.3293512      4.8383906      12.356929    
    144000   144000         303.37867     -53871.634      4.6048427      1.8850878      3.5888559      10.078786    
    145000   145000         304.91033     -53807.779      7.9461387      1.4516076      5.1040474      14.501794    
    146000   146000         302.2547      -53844.957      8.3868787      1.4436439      5.3617736      15.192296    
    147000   147000         284.99006     -53926.759      6.395897       2.0090243      4.9002182      13.30514     
    148000   148000         295.5318      -53897.814      4.6229639      1.6789209      4.7511719      11.053057    
    149000   149000         306.06101     -53879.122      4.5591096      1.6372672      3.9711221      10.167499    
    150000   150000         300.80711     -53853.192      3.5982366      1.8065095      3.5371219      8.9418679    
    151000   151000         310.51741     -53791.134      3.8427186      1.8784212      4.2114119      9.9325518    
    152000   152000         303.06371     -53830.695      4.2543616      2.1135186      3.4902397      9.8581198    
    153000   153000         288.1316      -53888.855      3.7926521      2.2914372      3.9392078      10.023297    
    154000   154000         298.30794     -53832.52       3.0210564      4.4892129      4.7700491      12.280318    
    155000   155000         312.42835     -53831.394      3.4064998      3.2745613      5.3809883      12.062049    
    156000   156000         310.79509     -53824.727      4.5870698      3.7999859      4.2965637      12.683619    
    157000   157000         289.82887     -53896.03       3.5498303      3.4078665      5.5794407      12.537137    
    158000   158000         309.9799      -53837.427      2.2032283      3.6444671      4.7174991      10.565195    
    159000   159000         290.40986     -53887.611      2.9398592      3.4990793      5.6722562      12.111195    
    160000   160000         307.83713     -53861.44       2.3704755      2.3302063      6.3555963      11.056278    
    161000   161000         289.85062     -53896.667      3.0941327      4.1861667      5.2902002      12.5705      
    162000   162000         288.72683     -53902.88       2.3935929      3.5890652      5.7601627      11.742821    
    163000   163000         314.26635     -53843.372      3.4432965      4.0128704      7.5565743      15.012741    
    164000   164000         306.27303     -53842.903      2.5351077      2.8462408      5.8617056      11.243054    
    165000   165000         296.69841     -53874.878      2.2343626      4.3412991      6.0249849      12.600647    
    166000   166000         300.30472     -53831.806      2.0861548      4.2016748      6.2120837      12.499913    
    167000   167000         295.43008     -53873.571      2.3292308      3.1141538      7.1515915      12.594976    
    168000   168000         301.15928     -53870.688      2.1563581      3.5641079      6.9562649      12.676731    
    169000   169000         297.44843     -53862.2        1.8847089      3.7623466      7.1796825      12.826738    
    170000   170000         279.2128      -53896.471      3.1475244      4.6810081      6.3886171      14.21715     
    171000   171000         297.18149     -53840.497      2.8507338      4.9360268      5.6329356      13.419696    
    172000   172000         283.98107     -53913.281      3.5315734      4.7177875      7.9143897      16.163751    
    173000   173000         286.22583     -53878.748      3.6997625      4.89733        8.484375       17.081467    
    174000   174000         304.62123     -53823.279      4.3161823      3.6820184      7.572128       15.570329    
    175000   175000         292.53029     -53868.03       3.3690604      4.1367076      5.0281206      12.533889    
    176000   176000         283.66725     -53857.846      3.5391936      5.0526702      6.8037863      15.39565     
    177000   177000         303.9567      -53813.269      2.7387739      7.8135784      5.7919715      16.344324    
    178000   178000         302.6388      -53872.411      6.2123639      6.6691342      5.4608706      18.342369    
    179000   179000         278.23921     -53949.066      8.8904122      7.6767386      3.5387107      20.105861    
    180000   180000         303.84541     -53830.469      9.3769504      9.7172249      6.2890127      25.383188    
    181000   181000         293.66029     -53870.609      9.0854793      11.401781      6.8707174      27.357978    
    182000   182000         284.80148     -53873.294      9.6211584      8.6530149      6.577877       24.85205     
    183000   183000         291.86376     -53872.944      9.9583893      8.6765165      6.3830722      25.017978    
    184000   184000         279.34489     -53923.246      10.014747      12.301987      7.9493199      30.266054    
    185000   185000         305.8777      -53849.314      12.969904      10.28555       6.7700931      30.025547    
    186000   186000         304.01826     -53858.045      10.142876      9.8322077      6.876331       26.851414    
    187000   187000         303.64173     -53833.595      11.835555      11.370336      6.0313317      29.237224    
    188000   188000         291.44782     -53901.462      10.891958      11.507335      6.836698       29.23599     
    189000   189000         303.49376     -53866.114      13.231325      9.1544924      7.0150164      29.400833    
    190000   190000         307.76589     -53833.24       13.202162      11.402152      6.4687568      31.073071    
    191000   191000         321.09062     -53825.886      10.620659      9.7970684      6.5897696      27.007497    
    192000   192000         307.0869      -53841.232      12.809621      8.5462745      7.0141308      28.370027    
    193000   193000         283.63174     -53904.416      12.158347      8.8527801      6.1691264      27.180254    
    194000   194000         293.2204      -53877.693      12.496685      9.7955722      6.8290288      29.121286    
    195000   195000         307.80191     -53855.245      10.904312      9.7505317      6.6342087      27.289052    
    196000   196000         284.92656     -53898.236      14.879888      9.2366411      6.8954495      31.011979    
    197000   197000         302.25668     -53843.815      13.677574      10.830726      7.4221473      31.930447    
    198000   198000         297.4446      -53889.995      14.917521      11.958455      5.8911256      32.767101    
    199000   199000         298.45472     -53861.948      14.881069      10.308244      6.146465       31.335778    
    200000   200000         306.99829     -53832.53       14.370735      10.321712      6.5271914      31.219638    
    200031   200031         296.65755     -53834.707      14.683173      10.31934       6.5385208      31.541034    
Loop time of 457.494 on 1 procs for 100000 steps with 657 atoms

Performance: 18.886 ns/day, 1.271 hours/ns, 218.582 timesteps/s
0.0% CPU use with 1 MPI tasks x no OpenMP threads

MPI task timing breakdown:
Section |  min time  |  avg time  |  max time  |%varavg| %total
---------------------------------------------------------------
Pair    | 302.36     | 302.36     | 302.36     |   0.0 | 66.09
Bond    | 0.738      | 0.738      | 0.738      |   0.0 |  0.16
Kspace  | 58.641     | 58.641     | 58.641     |   0.0 | 12.82
Neigh   | 23.098     | 23.098     | 23.098     |   0.0 |  5.05
Comm    | 2.8356     | 2.8356     | 2.8356     |   0.0 |  0.62
Output  | 0.3659     | 0.3659     | 0.3659     |   0.0 |  0.08
Modify  | 62.429     | 62.429     | 62.429     |   0.0 | 13.65
Other   |            | 7.031      |            |       |  1.54

Nlocal:            657 ave         657 max         657 min
Histogram: 1 0 0 0 0 0 0 0 0 0
Nghost:           7689 ave        7689 max        7689 min
Histogram: 1 0 0 0 0 0 0 0 0 0
Neighs:         229167 ave      229167 max      229167 min
Histogram: 1 0 0 0 0 0 0 0 0 0

Total # of neighbors = 229167
Ave neighs/atom = 348.80822
Ave special neighs/atom = 1.3363775
Neighbor list builds = 3604
Dangerous builds = 0
